
******************************************************************************
This program contains Ipopt, a library for large-scale nonlinear optimization.
 Ipopt is released as open source code under the Eclipse Public License (EPL).
         For more information visit http://projects.coin-or.org/Ipopt

This version of Ipopt was compiled from source code available at
    https://github.com/IDAES/Ipopt as part of the Institute for the Design of
    Advanced Energy Systems Process Systems Engineering Framework (IDAES PSE
    Framework) Copyright (c) 2018-2019. See https://github.com/IDAES/idaes-pse.

This version of Ipopt was compiled using HSL, a collection of Fortran codes
    for large-scale scientific computation.  All technical papers, sales and
    publicity material resulting from use of the HSL codes within IPOPT must
    contain the following acknowledgement:
        HSL, a collection of Fortran codes for large-scale scientific
        computation. See http://www.hsl.rl.ac.uk.
******************************************************************************

This is Ipopt version 3.13.2, running with linear solver ma27.

Number of nonzeros in equality constraint Jacobian...:     1588
Number of nonzeros in inequality constraint Jacobian.:        0
Number of nonzeros in Lagrangian Hessian.............:     2432

Total number of variables............................:      576
                     variables with only lower bounds:      128
                variables with lower and upper bounds:      384
                     variables with only upper bounds:        0
Total number of equality constraints.................:      570
Total number of inequality constraints...............:        0
        inequality constraints with only lower bounds:        0
   inequality constraints with lower and upper bounds:        0
        inequality constraints with only upper bounds:        0

iter    objective    inf_pr   inf_du lg(mu)  ||d||  lg(rg) alpha_du alpha_pr  ls
   0  0.0000000e+00 1.73e+00 6.00e-15  -1.0 0.00e+00    -  0.00e+00 0.00e+00   0
   1  3.7058730e+00 1.68e+00 1.27e+04  -1.0 1.69e+06    -  3.32e-02 9.87e-03h  3
   2  3.8441556e+00 1.68e+00 1.27e+04  -1.0 1.36e+06    -  7.74e-02 2.05e-04h 10
   3  5.0396794e+01 1.57e+00 3.49e+04  -1.0 2.27e+06    -  2.86e-02 2.19e-02h  2
   4  5.7592250e+01 1.56e+00 3.50e+04  -1.0 2.52e+06    -  3.96e-02 2.22e-03h  4
   5  6.4979936e+01 1.56e+00 3.50e+04  -1.0 2.61e+06    -  5.89e-02 2.16e-03h  4
   6  2.3911128e+02 1.45e+00 3.66e+04  -1.0 2.89e+06    -  5.54e-02 3.06e-02h  1
   7  2.4343423e+02 1.45e+00 3.66e+04  -1.0 3.22e+06    -  1.08e-01 5.81e-04h  1
   8  1.2246107e+03 1.19e+00 5.57e+04  -1.0 3.59e+06    -  9.82e-02 6.74e-02h  1
   9  8.0429239e+03 1.28e+00 3.99e+05  -1.0 3.77e+06    -  1.65e-01 1.79e-01h  2
iter    objective    inf_pr   inf_du lg(mu)  ||d||  lg(rg) alpha_du alpha_pr  ls
  10  6.2022605e+03 1.54e+00 3.79e+05  -1.0 2.64e+06    -  4.03e-01 2.21e-01f  2
  11  5.6438824e+03 1.43e+00 3.79e+05  -1.0 2.61e+08    -  7.07e-04 1.13e-03f  2
  12  5.6438583e+03 1.43e+00 3.79e+05  -1.0 6.71e+05  -4.0 5.55e-01 1.23e-05h  1
  13  9.0889737e+03 4.08e+00 4.64e+07  -1.0 8.18e+05  -4.5 5.28e-01 8.83e-01h  1
  14  9.0163474e+03 4.35e+00 7.29e+07  -1.0 1.77e+05  -3.1 5.01e-02 2.74e-01f  1
  15  9.0382988e+03 3.27e+00 2.82e+07  -1.0 1.78e+05  -3.6 1.36e-01 2.47e-01h  3
  16  9.7523031e+03 1.62e+00 1.37e+07  -1.0 1.15e+05  -3.2 6.99e-01 9.90e-01h  1
  17  9.8090560e+03 1.81e+00 1.02e+07  -1.0 6.84e+04  -3.7 8.96e-01 2.47e-01h  3
  18  9.7758120e+03 1.80e+00 4.79e+06  -1.0 4.46e+04  -4.2 9.62e-01 9.90e-01f  1
  19  9.7985740e+03 1.36e+00 4.00e+06  -1.0 4.51e+04  -4.6 3.55e-01 2.47e-01h  3
iter    objective    inf_pr   inf_du lg(mu)  ||d||  lg(rg) alpha_du alpha_pr  ls
  20  9.7088310e+03 1.14e+00 4.88e+06  -1.0 5.53e+04  -5.1 7.43e-03 9.90e-01f  1
  21  9.7421782e+03 1.30e-02 7.32e+04  -1.0 5.08e+03  -4.7 9.90e-01 9.90e-01h  1
  22  9.7299474e+03 2.50e-02 4.91e+05  -1.7 7.73e+02  -5.2 9.90e-01 9.90e-01f  1
  23  9.7203783e+03 2.52e-01 9.92e+07  -2.5 9.58e+02  -4.7 9.98e-01 9.97e-01f  1
In iteration 23, 32 Slacks too small, adjusting variable bounds
  24  9.7118479e+03 4.00e-02 1.40e+11  -2.5 1.33e+03  -5.2 1.00e+00 9.97e-01f  1
  25  9.3317875e+03 4.01e-02 4.76e+13  -2.5 7.15e+05    -  1.00e+00 3.46e-02f  1
  26  7.7055241e+03 1.00e-01 3.87e+13  -2.5 6.41e+05    -  6.91e-01 1.87e-01f  1
  27  6.4293476e+03 2.26e-01 2.98e+13  -2.5 5.19e+05    -  1.00e+00 2.32e-01f  1
  28  6.4249524e+03 2.25e-01 2.97e+13  -2.5 3.40e+05    -  8.09e-01 1.29e-03f  1
  29  5.3497301e+03 1.89e+00 2.67e+03  -2.5 2.90e+05    -  1.00e+00 1.00e+00f  1
iter    objective    inf_pr   inf_du lg(mu)  ||d||  lg(rg) alpha_du alpha_pr  ls
  30  5.0892677e+03 5.71e-01 5.08e+02  -2.5 9.04e+04    -  1.00e+00 1.00e+00f  1
  31  5.1097718e+03 1.76e-01 7.12e+02  -2.5 2.80e+04    -  1.00e+00 1.00e+00h  1
  32  5.1183031e+03 1.86e-02 4.71e+01  -2.5 8.76e+03    -  1.00e+00 9.38e-01h  1
  33  5.1220095e+03 6.74e-05 1.23e-01  -3.8 1.05e+03    -  1.00e+00 1.00e+00h  1
  34  5.1220090e+03 1.06e-07 1.64e-05  -5.7 1.01e+01    -  1.00e+00 1.00e+00h  1
  35  5.1220090e+03 1.67e-11 1.32e-08  -8.6 1.08e-02    -  1.00e+00 1.00e+00h  1

Number of Iterations....: 35

                                   (scaled)                 (unscaled)
Objective...............:   5.1220089653996938e+03    5.1220089653996938e+03
Dual infeasibility......:   1.3213139027357101e-08    1.3213139027357101e-08
Constraint violation....:   1.6691537041424453e-11    1.6691537041424453e-11
Complementarity.........:   2.5080800348561232e-09    2.5080800348561232e-09
Overall NLP error.......:   2.1370563654137275e-10    1.3213139027357101e-08


Number of objective function evaluations             = 78
Number of objective gradient evaluations             = 36
Number of equality constraint evaluations            = 78
Number of inequality constraint evaluations          = 0
Number of equality constraint Jacobian evaluations   = 36
Number of inequality constraint Jacobian evaluations = 0
Number of Lagrangian Hessian evaluations             = 35
Total CPU secs in IPOPT (w/o function evaluations)   =      0.094
Total CPU secs in NLP function evaluations           =      1.231

EXIT: Optimal Solution Found.
